<?xml version = "1.0" encoding="UTF-8" standalone="yes"?>
<CPLEXSolution version="1.2">
 <header
   problemName=""
   solutionName="incumbent"
   solutionIndex="-1"
   objectiveValue="144"
   solutionTypeValue="3"
   solutionTypeString="primal"
   solutionStatusValue="101"
   solutionStatusString="integer optimal solution"
   solutionMethodString="mip"
   primalFeasible="1"
   dualFeasible="1"
   MIPNodes="0"
   MIPIterations="258"
   writeLevel="1"/>
 <quality
   epInt="1e-05"
   epRHS="1e-06"
   maxIntInfeas="0"
   maxPrimalInfeas="0"
   maxX="12"
   maxSlack="11"/>
 <linearConstraints>
  <constraint index="0" slack="0"/>
  <constraint index="1" slack="0"/>
  <constraint index="2" slack="0"/>
  <constraint index="3" slack="0"/>
  <constraint index="4" slack="0"/>
  <constraint index="5" slack="0"/>
  <constraint index="6" slack="0"/>
  <constraint index="7" slack="0"/>
  <constraint index="8" slack="0"/>
  <constraint index="9" slack="0"/>
  <constraint index="10" slack="0"/>
  <constraint index="11" slack="0"/>
  <constraint index="12" slack="0"/>
  <constraint index="13" slack="0"/>
  <constraint index="14" slack="0"/>
  <constraint index="15" slack="0"/>
  <constraint index="16" slack="0"/>
  <constraint index="17" slack="0"/>
  <constraint index="18" slack="0"/>
  <constraint index="19" slack="0"/>
  <constraint index="20" slack="0"/>
  <constraint index="21" slack="0"/>
  <constraint index="22" slack="0"/>
  <constraint index="23" slack="0"/>
  <constraint index="24" slack="0"/>
  <constraint index="25" slack="0"/>
  <constraint index="26" slack="0"/>
  <constraint index="27" slack="0"/>
  <constraint index="28" slack="0"/>
  <constraint index="29" slack="0"/>
  <constraint index="30" slack="0"/>
  <constraint index="31" slack="0"/>
  <constraint index="32" slack="0"/>
  <constraint index="33" slack="0"/>
  <constraint index="34" slack="0"/>
  <constraint index="35" slack="0"/>
  <constraint index="36" slack="0"/>
  <constraint index="37" slack="0"/>
  <constraint index="38" slack="0"/>
  <constraint index="39" slack="0"/>
  <constraint index="40" slack="0"/>
  <constraint index="41" slack="0"/>
  <constraint index="42" slack="0"/>
  <constraint index="43" slack="0"/>
  <constraint index="44" slack="0"/>
  <constraint index="45" slack="0"/>
  <constraint index="46" slack="0"/>
  <constraint index="47" slack="0"/>
  <constraint index="48" slack="0"/>
  <constraint index="49" slack="0"/>
  <constraint index="50" slack="0"/>
  <constraint index="51" slack="0"/>
  <constraint index="52" slack="0"/>
  <constraint index="53" slack="0"/>
  <constraint index="54" slack="0"/>
  <constraint index="55" slack="0"/>
  <constraint index="56" slack="2"/>
  <constraint index="57" slack="0"/>
  <constraint index="58" slack="0"/>
  <constraint index="59" slack="1"/>
  <constraint index="60" slack="0"/>
  <constraint index="61" slack="0"/>
  <constraint index="62" slack="0"/>
  <constraint index="63" slack="0"/>
  <constraint index="64" slack="0"/>
  <constraint index="65" slack="0"/>
  <constraint index="66" slack="0"/>
  <constraint index="67" slack="0"/>
  <constraint index="68" slack="0"/>
  <constraint index="69" slack="0"/>
  <constraint index="70" slack="0"/>
  <constraint index="71" slack="0"/>
  <constraint index="72" slack="0"/>
  <constraint index="73" slack="0"/>
  <constraint index="74" slack="0"/>
  <constraint index="75" slack="0"/>
  <constraint index="76" slack="0"/>
  <constraint index="77" slack="9"/>
  <constraint index="78" slack="0"/>
  <constraint index="79" slack="0"/>
  <constraint index="80" slack="0"/>
  <constraint index="81" slack="0"/>
  <constraint index="82" slack="0"/>
  <constraint index="83" slack="8"/>
  <constraint index="84" slack="0"/>
  <constraint index="85" slack="0"/>
  <constraint index="86" slack="0"/>
  <constraint index="87" slack="0"/>
  <constraint index="88" slack="0"/>
  <constraint index="89" slack="0"/>
  <constraint index="90" slack="0"/>
  <constraint index="91" slack="0"/>
  <constraint index="92" slack="0"/>
  <constraint index="93" slack="0"/>
  <constraint index="94" slack="0"/>
  <constraint index="95" slack="7"/>
  <constraint index="96" slack="0"/>
  <constraint index="97" slack="0"/>
  <constraint index="98" slack="0"/>
  <constraint index="99" slack="0"/>
  <constraint index="100" slack="0"/>
  <constraint index="101" slack="0"/>
  <constraint index="102" slack="0"/>
  <constraint index="103" slack="0"/>
  <constraint index="104" slack="0"/>
  <constraint index="105" slack="0"/>
  <constraint index="106" slack="0"/>
  <constraint index="107" slack="6"/>
  <constraint index="108" slack="0"/>
  <constraint index="109" slack="0"/>
  <constraint index="110" slack="0"/>
  <constraint index="111" slack="0"/>
  <constraint index="112" slack="0"/>
  <constraint index="113" slack="0"/>
  <constraint index="114" slack="0"/>
  <constraint index="115" slack="0"/>
  <constraint index="116" slack="0"/>
  <constraint index="117" slack="0"/>
  <constraint index="118" slack="0"/>
  <constraint index="119" slack="5"/>
  <constraint index="120" slack="0"/>
  <constraint index="121" slack="0"/>
  <constraint index="122" slack="0"/>
  <constraint index="123" slack="0"/>
  <constraint index="124" slack="0"/>
  <constraint index="125" slack="0"/>
  <constraint index="126" slack="0"/>
  <constraint index="127" slack="0"/>
  <constraint index="128" slack="0"/>
  <constraint index="129" slack="0"/>
  <constraint index="130" slack="0"/>
  <constraint index="131" slack="4"/>
  <constraint index="132" slack="0"/>
  <constraint index="133" slack="0"/>
  <constraint index="134" slack="0"/>
  <constraint index="135" slack="0"/>
  <constraint index="136" slack="0"/>
  <constraint index="137" slack="0"/>
  <constraint index="138" slack="0"/>
  <constraint index="139" slack="0"/>
  <constraint index="140" slack="0"/>
  <constraint index="141" slack="0"/>
  <constraint index="142" slack="0"/>
  <constraint index="143" slack="0"/>
  <constraint index="144" slack="0"/>
  <constraint index="145" slack="10"/>
  <constraint index="146" slack="0"/>
  <constraint index="147" slack="0"/>
  <constraint index="148" slack="0"/>
  <constraint index="149" slack="0"/>
  <constraint index="150" slack="0"/>
  <constraint index="151" slack="0"/>
  <constraint index="152" slack="0"/>
  <constraint index="153" slack="0"/>
  <constraint index="154" slack="3"/>
  <constraint index="155" slack="0"/>
  <constraint index="156" slack="0"/>
  <constraint index="157" slack="11"/>
  <constraint index="158" slack="0"/>
  <constraint index="159" slack="0"/>
  <constraint index="160" slack="0"/>
  <constraint index="161" slack="0"/>
  <constraint index="162" slack="0"/>
  <constraint index="163" slack="0"/>
  <constraint index="164" slack="0"/>
  <constraint index="165" slack="0"/>
  <constraint index="166" slack="0"/>
  <constraint index="167" slack="0"/>
 </linearConstraints>
 <variables>
  <variable name="x01" index="0" value="-0"/>
  <variable name="x02" index="1" value="12"/>
  <variable name="x03" index="2" value="-0"/>
  <variable name="x04" index="3" value="-0"/>
  <variable name="x05" index="4" value="-0"/>
  <variable name="x06" index="5" value="-0"/>
  <variable name="x07" index="6" value="-0"/>
  <variable name="x08" index="7" value="-0"/>
  <variable name="x09" index="8" value="-0"/>
  <variable name="x010" index="9" value="-0"/>
  <variable name="x011" index="10" value="0"/>
  <variable name="x10" index="11" value="-0"/>
  <variable name="x12" index="12" value="-0"/>
  <variable name="x13" index="13" value="-0"/>
  <variable name="x14" index="14" value="-0"/>
  <variable name="x15" index="15" value="-0"/>
  <variable name="x16" index="16" value="-0"/>
  <variable name="x17" index="17" value="-0"/>
  <variable name="x18" index="18" value="0"/>
  <variable name="x19" index="19" value="-0"/>
  <variable name="x110" index="20" value="10"/>
  <variable name="x111" index="21" value="-0"/>
  <variable name="x20" index="22" value="0"/>
  <variable name="x21" index="23" value="11"/>
  <variable name="x23" index="24" value="0"/>
  <variable name="x24" index="25" value="0"/>
  <variable name="x25" index="26" value="0"/>
  <variable name="x26" index="27" value="0"/>
  <variable name="x27" index="28" value="0"/>
  <variable name="x28" index="29" value="0"/>
  <variable name="x29" index="30" value="-0"/>
  <variable name="x210" index="31" value="-0"/>
  <variable name="x211" index="32" value="-0"/>
  <variable name="x30" index="33" value="-0"/>
  <variable name="x31" index="34" value="-0"/>
  <variable name="x32" index="35" value="-0"/>
  <variable name="x34" index="36" value="-0"/>
  <variable name="x35" index="37" value="-0"/>
  <variable name="x36" index="38" value="0"/>
  <variable name="x37" index="39" value="-0"/>
  <variable name="x38" index="40" value="-0"/>
  <variable name="x39" index="41" value="3"/>
  <variable name="x310" index="42" value="-0"/>
  <variable name="x311" index="43" value="0"/>
  <variable name="x40" index="44" value="-0"/>
  <variable name="x41" index="45" value="-0"/>
  <variable name="x42" index="46" value="-0"/>
  <variable name="x43" index="47" value="4"/>
  <variable name="x45" index="48" value="-0"/>
  <variable name="x46" index="49" value="-0"/>
  <variable name="x47" index="50" value="-0"/>
  <variable name="x48" index="51" value="-0"/>
  <variable name="x49" index="52" value="0"/>
  <variable name="x410" index="53" value="-0"/>
  <variable name="x411" index="54" value="0"/>
  <variable name="x50" index="55" value="-0"/>
  <variable name="x51" index="56" value="-0"/>
  <variable name="x52" index="57" value="-0"/>
  <variable name="x53" index="58" value="-0"/>
  <variable name="x54" index="59" value="5"/>
  <variable name="x56" index="60" value="-0"/>
  <variable name="x57" index="61" value="-0"/>
  <variable name="x58" index="62" value="-0"/>
  <variable name="x59" index="63" value="-0"/>
  <variable name="x510" index="64" value="-0"/>
  <variable name="x511" index="65" value="-0"/>
  <variable name="x60" index="66" value="-0"/>
  <variable name="x61" index="67" value="-0"/>
  <variable name="x62" index="68" value="-0"/>
  <variable name="x63" index="69" value="-0"/>
  <variable name="x64" index="70" value="-0"/>
  <variable name="x65" index="71" value="6"/>
  <variable name="x67" index="72" value="0"/>
  <variable name="x68" index="73" value="-0"/>
  <variable name="x69" index="74" value="-0"/>
  <variable name="x610" index="75" value="-0"/>
  <variable name="x611" index="76" value="-0"/>
  <variable name="x70" index="77" value="-0"/>
  <variable name="x71" index="78" value="-0"/>
  <variable name="x72" index="79" value="-0"/>
  <variable name="x73" index="80" value="-0"/>
  <variable name="x74" index="81" value="-0"/>
  <variable name="x75" index="82" value="0"/>
  <variable name="x76" index="83" value="7"/>
  <variable name="x78" index="84" value="-0"/>
  <variable name="x79" index="85" value="-0"/>
  <variable name="x710" index="86" value="-0"/>
  <variable name="x711" index="87" value="-0"/>
  <variable name="x80" index="88" value="-0"/>
  <variable name="x81" index="89" value="-0"/>
  <variable name="x82" index="90" value="-0"/>
  <variable name="x83" index="91" value="0"/>
  <variable name="x84" index="92" value="0"/>
  <variable name="x85" index="93" value="0"/>
  <variable name="x86" index="94" value="0"/>
  <variable name="x87" index="95" value="8"/>
  <variable name="x89" index="96" value="0"/>
  <variable name="x810" index="97" value="-0"/>
  <variable name="x811" index="98" value="0"/>
  <variable name="x90" index="99" value="-0"/>
  <variable name="x91" index="100" value="-0"/>
  <variable name="x92" index="101" value="-0"/>
  <variable name="x93" index="102" value="-0"/>
  <variable name="x94" index="103" value="-0"/>
  <variable name="x95" index="104" value="-0"/>
  <variable name="x96" index="105" value="-0"/>
  <variable name="x97" index="106" value="-0"/>
  <variable name="x98" index="107" value="-0"/>
  <variable name="x910" index="108" value="-0"/>
  <variable name="x911" index="109" value="2"/>
  <variable name="x100" index="110" value="-0"/>
  <variable name="x101" index="111" value="-0"/>
  <variable name="x102" index="112" value="0"/>
  <variable name="x103" index="113" value="0"/>
  <variable name="x104" index="114" value="0"/>
  <variable name="x105" index="115" value="-0"/>
  <variable name="x106" index="116" value="-0"/>
  <variable name="x107" index="117" value="-0"/>
  <variable name="x108" index="118" value="9"/>
  <variable name="x109" index="119" value="0"/>
  <variable name="x1011" index="120" value="-0"/>
  <variable name="x110" index="121" value="1"/>
  <variable name="x111" index="122" value="-0"/>
  <variable name="x112" index="123" value="-0"/>
  <variable name="x113" index="124" value="-0"/>
  <variable name="x114" index="125" value="-0"/>
  <variable name="x115" index="126" value="-0"/>
  <variable name="x116" index="127" value="-0"/>
  <variable name="x117" index="128" value="-0"/>
  <variable name="x118" index="129" value="-0"/>
  <variable name="x119" index="130" value="-0"/>
  <variable name="x1110" index="131" value="0"/>
  <variable name="y01" index="132" value="0"/>
  <variable name="y02" index="133" value="1"/>
  <variable name="y03" index="134" value="-0"/>
  <variable name="y04" index="135" value="-0"/>
  <variable name="y05" index="136" value="-0"/>
  <variable name="y06" index="137" value="-0"/>
  <variable name="y07" index="138" value="-0"/>
  <variable name="y08" index="139" value="-0"/>
  <variable name="y09" index="140" value="-0"/>
  <variable name="y010" index="141" value="-0"/>
  <variable name="y011" index="142" value="0"/>
  <variable name="y10" index="143" value="0"/>
  <variable name="y12" index="144" value="-0"/>
  <variable name="y13" index="145" value="-0"/>
  <variable name="y14" index="146" value="-0"/>
  <variable name="y15" index="147" value="-0"/>
  <variable name="y16" index="148" value="-0"/>
  <variable name="y17" index="149" value="-0"/>
  <variable name="y18" index="150" value="-0"/>
  <variable name="y19" index="151" value="-0"/>
  <variable name="y110" index="152" value="1"/>
  <variable name="y111" index="153" value="-0"/>
  <variable name="y20" index="154" value="0"/>
  <variable name="y21" index="155" value="1"/>
  <variable name="y23" index="156" value="-0"/>
  <variable name="y24" index="157" value="-0"/>
  <variable name="y25" index="158" value="-0"/>
  <variable name="y26" index="159" value="-0"/>
  <variable name="y27" index="160" value="-0"/>
  <variable name="y28" index="161" value="-0"/>
  <variable name="y29" index="162" value="-0"/>
  <variable name="y210" index="163" value="0"/>
  <variable name="y211" index="164" value="-0"/>
  <variable name="y30" index="165" value="0"/>
  <variable name="y31" index="166" value="-0"/>
  <variable name="y32" index="167" value="-0"/>
  <variable name="y34" index="168" value="0"/>
  <variable name="y35" index="169" value="-0"/>
  <variable name="y36" index="170" value="-0"/>
  <variable name="y37" index="171" value="-0"/>
  <variable name="y38" index="172" value="-0"/>
  <variable name="y39" index="173" value="1"/>
  <variable name="y310" index="174" value="-0"/>
  <variable name="y311" index="175" value="-0"/>
  <variable name="y40" index="176" value="0"/>
  <variable name="y41" index="177" value="-0"/>
  <variable name="y42" index="178" value="-0"/>
  <variable name="y43" index="179" value="1"/>
  <variable name="y45" index="180" value="0"/>
  <variable name="y46" index="181" value="-0"/>
  <variable name="y47" index="182" value="-0"/>
  <variable name="y48" index="183" value="0"/>
  <variable name="y49" index="184" value="-0"/>
  <variable name="y410" index="185" value="-0"/>
  <variable name="y411" index="186" value="-0"/>
  <variable name="y50" index="187" value="0"/>
  <variable name="y51" index="188" value="-0"/>
  <variable name="y52" index="189" value="-0"/>
  <variable name="y53" index="190" value="-0"/>
  <variable name="y54" index="191" value="1"/>
  <variable name="y56" index="192" value="0"/>
  <variable name="y57" index="193" value="-0"/>
  <variable name="y58" index="194" value="-0"/>
  <variable name="y59" index="195" value="0"/>
  <variable name="y510" index="196" value="-0"/>
  <variable name="y511" index="197" value="-0"/>
  <variable name="y60" index="198" value="0"/>
  <variable name="y61" index="199" value="-0"/>
  <variable name="y62" index="200" value="-0"/>
  <variable name="y63" index="201" value="-0"/>
  <variable name="y64" index="202" value="-0"/>
  <variable name="y65" index="203" value="1"/>
  <variable name="y67" index="204" value="0"/>
  <variable name="y68" index="205" value="-0"/>
  <variable name="y69" index="206" value="-0"/>
  <variable name="y610" index="207" value="-0"/>
  <variable name="y611" index="208" value="-0"/>
  <variable name="y70" index="209" value="0"/>
  <variable name="y71" index="210" value="-0"/>
  <variable name="y72" index="211" value="-0"/>
  <variable name="y73" index="212" value="-0"/>
  <variable name="y74" index="213" value="-0"/>
  <variable name="y75" index="214" value="0"/>
  <variable name="y76" index="215" value="1"/>
  <variable name="y78" index="216" value="-0"/>
  <variable name="y79" index="217" value="-0"/>
  <variable name="y710" index="218" value="-0"/>
  <variable name="y711" index="219" value="-0"/>
  <variable name="y80" index="220" value="0"/>
  <variable name="y81" index="221" value="0"/>
  <variable name="y82" index="222" value="-0"/>
  <variable name="y83" index="223" value="0"/>
  <variable name="y84" index="224" value="-0"/>
  <variable name="y85" index="225" value="-0"/>
  <variable name="y86" index="226" value="-0"/>
  <variable name="y87" index="227" value="1"/>
  <variable name="y89" index="228" value="-0"/>
  <variable name="y810" index="229" value="-0"/>
  <variable name="y811" index="230" value="-0"/>
  <variable name="y90" index="231" value="0"/>
  <variable name="y91" index="232" value="-0"/>
  <variable name="y92" index="233" value="-0"/>
  <variable name="y93" index="234" value="-0"/>
  <variable name="y94" index="235" value="0"/>
  <variable name="y95" index="236" value="0"/>
  <variable name="y96" index="237" value="-0"/>
  <variable name="y97" index="238" value="-0"/>
  <variable name="y98" index="239" value="0"/>
  <variable name="y910" index="240" value="-0"/>
  <variable name="y911" index="241" value="1"/>
  <variable name="y100" index="242" value="0"/>
  <variable name="y101" index="243" value="0"/>
  <variable name="y102" index="244" value="0"/>
  <variable name="y103" index="245" value="-0"/>
  <variable name="y104" index="246" value="-0"/>
  <variable name="y105" index="247" value="-0"/>
  <variable name="y106" index="248" value="-0"/>
  <variable name="y107" index="249" value="-0"/>
  <variable name="y108" index="250" value="1"/>
  <variable name="y109" index="251" value="-0"/>
  <variable name="y1011" index="252" value="0"/>
  <variable name="y110" index="253" value="1"/>
  <variable name="y111" index="254" value="-0"/>
  <variable name="y112" index="255" value="-0"/>
  <variable name="y113" index="256" value="-0"/>
  <variable name="y114" index="257" value="-0"/>
  <variable name="y115" index="258" value="-0"/>
  <variable name="y116" index="259" value="-0"/>
  <variable name="y117" index="260" value="-0"/>
  <variable name="y118" index="261" value="-0"/>
  <variable name="y119" index="262" value="0"/>
  <variable name="y1110" index="263" value="0"/>
 </variables>
</CPLEXSolution>
